(set-info :smt-lib-version 2.6)
(set-logic QF_NIA)
(set-info :source |
Generated by: Cristina Borralleras, Daniel Larraz, Albert Oliveras, Enric Rodriguez-Carbonell, Albert Rubio
Generated on: 2017-04-27
Generator: VeryMax
Application: Termination proving
Target solver: barcelogic
|)
(set-info :license "https://creativecommons.org/licenses/by/4.0/")
(set-info :category "industrial")
(set-info :status unknown)
(declare-fun Nl10__const_65536^01 () Int)
(declare-fun Nl10fcode5^01 () Int)
(declare-fun Nl10hshift11^01 () Int)
(declare-fun Nl10__const_65536^02 () Int)
(declare-fun Nl10fcode5^02 () Int)
(declare-fun Nl10hshift11^02 () Int)
(declare-fun lam0n0 () Int)
(declare-fun lam0n1 () Int)
(declare-fun lam0n2 () Int)
(declare-fun lam0n3 () Int)
(declare-fun Nl10CT1 () Int)
(declare-fun Nl10CT2 () Int)
(declare-fun lam1n0 () Int)
(declare-fun lam1n1 () Int)
(declare-fun lam1n2 () Int)
(declare-fun lam1n3 () Int)
(declare-fun lam2n0 () Int)
(declare-fun lam2n1 () Int)
(declare-fun lam2n2 () Int)
(declare-fun lam2n3 () Int)
(declare-fun lam3n0 () Int)
(declare-fun lam3n1 () Int)
(declare-fun lam3n2 () Int)
(declare-fun lam3n3 () Int)
(declare-fun lam3n4 () Int)
(declare-fun lam4n0 () Int)
(declare-fun lam4n1 () Int)
(declare-fun lam4n2 () Int)
(declare-fun lam4n3 () Int)
(declare-fun lam4n4 () Int)
(declare-fun lam5n0 () Int)
(declare-fun lam5n1 () Int)
(declare-fun lam5n2 () Int)
(declare-fun lam5n3 () Int)
(declare-fun lam5n4 () Int)
(declare-fun lam5n5 () Int)
(declare-fun lam6n0 () Int)
(declare-fun lam6n1 () Int)
(declare-fun lam6n2 () Int)
(declare-fun lam6n3 () Int)
(declare-fun lam6n4 () Int)
(declare-fun lam6n5 () Int)
(declare-fun lam7n0 () Int)
(declare-fun lam7n1 () Int)
(declare-fun lam7n2 () Int)
(declare-fun lam7n3 () Int)
(declare-fun lam7n4 () Int)
(declare-fun lam7n5 () Int)
(declare-fun lam8n0 () Int)
(declare-fun lam8n1 () Int)
(declare-fun lam8n2 () Int)
(declare-fun lam8n3 () Int)
(declare-fun lam8n4 () Int)
(declare-fun lam8n5 () Int)
(declare-fun lam9n0 () Int)
(declare-fun lam9n1 () Int)
(declare-fun lam9n2 () Int)
(declare-fun lam9n3 () Int)
(declare-fun lam9n4 () Int)
(declare-fun lam10n0 () Int)
(declare-fun lam10n1 () Int)
(declare-fun lam10n2 () Int)
(declare-fun lam10n3 () Int)
(declare-fun lam10n4 () Int)
(declare-fun lam11n0 () Int)
(declare-fun lam11n1 () Int)
(declare-fun lam11n2 () Int)
(declare-fun lam11n3 () Int)
(declare-fun lam11n4 () Int)
(declare-fun lam11n5 () Int)
(declare-fun lam12n0 () Int)
(declare-fun lam12n1 () Int)
(declare-fun lam12n2 () Int)
(declare-fun lam12n3 () Int)
(declare-fun lam12n4 () Int)
(declare-fun lam12n5 () Int)
(declare-fun lam13n0 () Int)
(declare-fun lam13n1 () Int)
(declare-fun lam13n2 () Int)
(declare-fun lam13n3 () Int)
(declare-fun lam13n4 () Int)
(declare-fun lam13n5 () Int)
(declare-fun lam14n0 () Int)
(declare-fun lam14n1 () Int)
(declare-fun lam14n2 () Int)
(declare-fun lam14n3 () Int)
(declare-fun lam14n4 () Int)
(declare-fun lam14n5 () Int)
(declare-fun lam15n0 () Int)
(declare-fun lam15n1 () Int)
(declare-fun lam15n2 () Int)
(declare-fun lam15n3 () Int)
(declare-fun lam15n4 () Int)
(declare-fun lam16n0 () Int)
(declare-fun lam16n1 () Int)
(declare-fun lam16n2 () Int)
(declare-fun lam16n3 () Int)
(declare-fun lam16n4 () Int)
(declare-fun lam17n0 () Int)
(declare-fun lam17n1 () Int)
(declare-fun lam17n2 () Int)
(declare-fun lam17n3 () Int)
(declare-fun lam17n4 () Int)
(declare-fun lam17n5 () Int)
(declare-fun lam18n0 () Int)
(declare-fun lam18n1 () Int)
(declare-fun lam18n2 () Int)
(declare-fun lam18n3 () Int)
(declare-fun lam18n4 () Int)
(declare-fun lam18n5 () Int)
(declare-fun lam19n0 () Int)
(declare-fun lam19n1 () Int)
(declare-fun lam19n2 () Int)
(declare-fun lam19n3 () Int)
(declare-fun lam19n4 () Int)
(declare-fun lam19n5 () Int)
(declare-fun lam20n0 () Int)
(declare-fun lam20n1 () Int)
(declare-fun lam20n2 () Int)
(declare-fun lam20n3 () Int)
(declare-fun lam20n4 () Int)
(declare-fun lam20n5 () Int)
(declare-fun count^0 () Int)
(declare-fun i3^0 () Int)
(declare-fun __const_65536^0 () Int)
(declare-fun hsize^0 () Int)
(declare-fun __const_429496^0 () Int)
(declare-fun undef689 () Int)
(declare-fun block_compress^0 () Int)
(declare-fun __const_53^0 () Int)
(declare-fun undef874 () Int)
(declare-fun lam24n0 () Int)
(declare-fun lam24n1 () Int)
(declare-fun lam24n2 () Int)
(declare-fun lam24n3 () Int)
(declare-fun lam24n4 () Int)
(declare-fun lam24n5 () Int)
(declare-fun RFN1_CT () Int)
(declare-fun RFN1_fcode5^0 () Int)
(declare-fun RFN1_hshift11^0 () Int)
(declare-fun RFN1___const_65536^0 () Int)
(declare-fun lam22n0 () Int)
(declare-fun lam22n1 () Int)
(declare-fun lam22n2 () Int)
(declare-fun lam22n3 () Int)
(declare-fun lam22n4 () Int)
(declare-fun lam22n5 () Int)
(declare-fun lam23n0 () Int)
(declare-fun lam23n1 () Int)
(declare-fun lam23n2 () Int)
(declare-fun lam23n3 () Int)
(declare-fun lam23n4 () Int)
(declare-fun lam23n5 () Int)
(declare-fun lam21n0 () Int)
(declare-fun lam21n1 () Int)
(declare-fun lam21n2 () Int)
(declare-fun lam21n3 () Int)
(declare-fun lam21n4 () Int)
(declare-fun lam21n5 () Int)
(assert ( and ( <= ( - 1 ) Nl10__const_65536^01 ) ( <= Nl10__const_65536^01 1 ) ( <= ( - 1 ) Nl10fcode5^01 ) ( <= Nl10fcode5^01 1 ) ( <= ( - 1 ) Nl10hshift11^01 ) ( <= Nl10hshift11^01 1 ) ( <= ( - 1 ) Nl10__const_65536^02 ) ( <= Nl10__const_65536^02 1 ) ( <= ( - 1 ) Nl10fcode5^02 ) ( <= Nl10fcode5^02 1 ) ( <= ( - 1 ) Nl10hshift11^02 ) ( <= Nl10hshift11^02 1 ) ))
(assert ( or ( and ( >= lam0n0 0 ) ( >= lam0n1 0 ) ( >= lam0n2 0 ) ( >= lam0n3 0 ) ( > ( + ( * 1 lam0n0 ) ( * ( - 1 ) lam0n1 ) ( * Nl10CT1 lam0n2 ) ( * Nl10CT2 lam0n3 ) ( - 1 ) ) 0 ) ( = ( + ( * ( - 1 ) lam0n0 ) ( * Nl10__const_65536^01 lam0n2 ) ( * Nl10__const_65536^02 lam0n3 ) ) 0 ) ( = ( + ( * 1 lam0n0 ) ( * Nl10fcode5^01 lam0n2 ) ( * Nl10fcode5^02 lam0n3 ) ) 0 ) ( = ( + ( * ( - 1 ) lam0n1 ) ( * Nl10hshift11^01 lam0n2 ) ( * Nl10hshift11^02 lam0n3 ) ) 0 ) ) ( and ( >= lam1n0 0 ) ( >= lam1n1 0 ) ( >= lam1n2 0 ) ( >= lam1n3 0 ) ( > ( + ( * 1 lam1n0 ) ( * ( - 1 ) lam1n1 ) ( * Nl10CT1 lam1n2 ) ( * Nl10CT2 lam1n3 ) ( - 1 ( + ( + Nl10CT1 ( * Nl10fcode5^01 0 ) ) ( * Nl10hshift11^01 1 ) ) ) ) 0 ) ( = ( + ( * ( - 1 ) lam1n0 ) ( * Nl10__const_65536^01 lam1n2 ) ( * Nl10__const_65536^02 lam1n3 ) ( - ( + 0 Nl10__const_65536^01 ) ) ) 0 ) ( = ( + ( * 1 lam1n0 ) ( * Nl10fcode5^01 lam1n2 ) ( * Nl10fcode5^02 lam1n3 ) ) 0 ) ( = ( + ( * ( - 1 ) lam1n1 ) ( * Nl10hshift11^01 lam1n2 ) ( * Nl10hshift11^02 lam1n3 ) ( - ( + 0 ( * Nl10hshift11^01 1 ) ) ) ) 0 ) ( = ( - ( + 0 ( * Nl10fcode5^01 1 ) ) ) 0 ) ) ))
(assert ( or ( and ( >= lam0n0 0 ) ( >= lam0n1 0 ) ( >= lam0n2 0 ) ( >= lam0n3 0 ) ( > ( + ( * 1 lam0n0 ) ( * ( - 1 ) lam0n1 ) ( * Nl10CT1 lam0n2 ) ( * Nl10CT2 lam0n3 ) ( - 1 ) ) 0 ) ( = ( + ( * ( - 1 ) lam0n0 ) ( * Nl10__const_65536^01 lam0n2 ) ( * Nl10__const_65536^02 lam0n3 ) ) 0 ) ( = ( + ( * 1 lam0n0 ) ( * Nl10fcode5^01 lam0n2 ) ( * Nl10fcode5^02 lam0n3 ) ) 0 ) ( = ( + ( * ( - 1 ) lam0n1 ) ( * Nl10hshift11^01 lam0n2 ) ( * Nl10hshift11^02 lam0n3 ) ) 0 ) ) ( and ( >= lam2n0 0 ) ( >= lam2n1 0 ) ( >= lam2n2 0 ) ( >= lam2n3 0 ) ( > ( + ( * 1 lam2n0 ) ( * ( - 1 ) lam2n1 ) ( * Nl10CT1 lam2n2 ) ( * Nl10CT2 lam2n3 ) ( - 1 ( + ( + Nl10CT2 ( * Nl10fcode5^02 0 ) ) ( * Nl10hshift11^02 1 ) ) ) ) 0 ) ( = ( + ( * ( - 1 ) lam2n0 ) ( * Nl10__const_65536^01 lam2n2 ) ( * Nl10__const_65536^02 lam2n3 ) ( - ( + 0 Nl10__const_65536^02 ) ) ) 0 ) ( = ( + ( * 1 lam2n0 ) ( * Nl10fcode5^01 lam2n2 ) ( * Nl10fcode5^02 lam2n3 ) ) 0 ) ( = ( + ( * ( - 1 ) lam2n1 ) ( * Nl10hshift11^01 lam2n2 ) ( * Nl10hshift11^02 lam2n3 ) ( - ( + 0 ( * Nl10hshift11^02 1 ) ) ) ) 0 ) ( = ( - ( + 0 ( * Nl10fcode5^02 1 ) ) ) 0 ) ) ))
(assert ( or ( and ( <= count^0 0 ) ( <= ( + count^0 ( * ( - 1 ) i3^0 ) ) 0 ) ( not ( <= ( + __const_65536^0 ( * ( - 1 ) hsize^0 ) ) 0 ) ) ( = ( + __const_429496^0 ( * ( - 1 ) undef689 ) ) 0 ) ( = block_compress^0 0 ) ( <= ( + ( + ( + Nl10CT1 ( * Nl10fcode5^01 0 ) ) ( * Nl10hshift11^01 0 ) ) ( * ( + 0 Nl10__const_65536^01 ) __const_65536^0 ) ( * ( + 0 ( * Nl10fcode5^01 1 ) ) hsize^0 ) ) 0 ) ( <= ( + ( + ( + Nl10CT2 ( * Nl10fcode5^02 0 ) ) ( * Nl10hshift11^02 0 ) ) ( * ( + 0 Nl10__const_65536^02 ) __const_65536^0 ) ( * ( + 0 ( * Nl10fcode5^02 1 ) ) hsize^0 ) ) 0 ) ( <= 0 0 ) ) ( and ( <= __const_53^0 0 ) ( <= ( + count^0 ( * ( - 1 ) i3^0 ) ) 0 ) ( not ( <= ( + __const_65536^0 ( * ( - 1 ) hsize^0 ) ) 0 ) ) ( <= ( + 1 ( * ( - 1 ) count^0 ) ) 0 ) ( = ( + __const_429496^0 ( * ( - 1 ) undef689 ) ) 0 ) ( = block_compress^0 0 ) ( <= ( + ( + ( + Nl10CT1 ( * Nl10fcode5^01 0 ) ) ( * Nl10hshift11^01 0 ) ) ( * ( + 0 Nl10__const_65536^01 ) __const_65536^0 ) ( * ( + 0 ( * Nl10fcode5^01 1 ) ) hsize^0 ) ) 0 ) ( <= ( + ( + ( + Nl10CT2 ( * Nl10fcode5^02 0 ) ) ( * Nl10hshift11^02 0 ) ) ( * ( + 0 Nl10__const_65536^02 ) __const_65536^0 ) ( * ( + 0 ( * Nl10fcode5^02 1 ) ) hsize^0 ) ) 0 ) ( <= 0 0 ) ) ( and ( <= ( + count^0 ( * ( - 1 ) i3^0 ) ) 0 ) ( <= ( + 1 ( * ( - 1 ) __const_53^0 ) ) 0 ) ( not ( <= ( + __const_65536^0 ( * ( - 1 ) hsize^0 ) ) 0 ) ) ( <= ( + 1 ( * ( - 1 ) count^0 ) ) 0 ) ( = block_compress^0 0 ) ( = ( + undef689 ( * ( - 1 ) undef874 ) ) 0 ) ( <= ( + ( + ( + Nl10CT1 ( * Nl10fcode5^01 0 ) ) ( * Nl10hshift11^01 0 ) ) ( * ( + 0 Nl10__const_65536^01 ) __const_65536^0 ) ( * ( + 0 ( * Nl10fcode5^01 1 ) ) hsize^0 ) ) 0 ) ( <= ( + ( + ( + Nl10CT2 ( * Nl10fcode5^02 0 ) ) ( * Nl10hshift11^02 0 ) ) ( * ( + 0 Nl10__const_65536^02 ) __const_65536^0 ) ( * ( + 0 ( * Nl10fcode5^02 1 ) ) hsize^0 ) ) 0 ) ( <= 0 0 ) ) ( and ( <= count^0 0 ) ( <= ( + count^0 ( * ( - 1 ) i3^0 ) ) 0 ) ( not ( <= ( + __const_65536^0 ( * ( - 1 ) hsize^0 ) ) 0 ) ) ( <= ( + 1 ( * ( - 1 ) block_compress^0 ) ) 0 ) ( = ( + __const_429496^0 ( * ( - 1 ) undef689 ) ) 0 ) ( <= ( + ( + ( + Nl10CT1 ( * Nl10fcode5^01 0 ) ) ( * Nl10hshift11^01 0 ) ) ( * ( + 0 Nl10__const_65536^01 ) __const_65536^0 ) ( * ( + 0 ( * Nl10fcode5^01 1 ) ) hsize^0 ) ) 0 ) ( <= ( + ( + ( + Nl10CT2 ( * Nl10fcode5^02 0 ) ) ( * Nl10hshift11^02 0 ) ) ( * ( + 0 Nl10__const_65536^02 ) __const_65536^0 ) ( * ( + 0 ( * Nl10fcode5^02 1 ) ) hsize^0 ) ) 0 ) ( <= 0 0 ) ) ( and ( <= __const_53^0 0 ) ( <= ( + count^0 ( * ( - 1 ) i3^0 ) ) 0 ) ( not ( <= ( + __const_65536^0 ( * ( - 1 ) hsize^0 ) ) 0 ) ) ( <= ( + 1 ( * ( - 1 ) block_compress^0 ) ) 0 ) ( <= ( + 1 ( * ( - 1 ) count^0 ) ) 0 ) ( = ( + __const_429496^0 ( * ( - 1 ) undef689 ) ) 0 ) ( <= ( + ( + ( + Nl10CT1 ( * Nl10fcode5^01 0 ) ) ( * Nl10hshift11^01 0 ) ) ( * ( + 0 Nl10__const_65536^01 ) __const_65536^0 ) ( * ( + 0 ( * Nl10fcode5^01 1 ) ) hsize^0 ) ) 0 ) ( <= ( + ( + ( + Nl10CT2 ( * Nl10fcode5^02 0 ) ) ( * Nl10hshift11^02 0 ) ) ( * ( + 0 Nl10__const_65536^02 ) __const_65536^0 ) ( * ( + 0 ( * Nl10fcode5^02 1 ) ) hsize^0 ) ) 0 ) ( <= 0 0 ) ) ( and ( <= ( + count^0 ( * ( - 1 ) i3^0 ) ) 0 ) ( <= ( + 1 ( * ( - 1 ) __const_53^0 ) ) 0 ) ( not ( <= ( + __const_65536^0 ( * ( - 1 ) hsize^0 ) ) 0 ) ) ( <= ( + 1 ( * ( - 1 ) block_compress^0 ) ) 0 ) ( <= ( + 1 ( * ( - 1 ) count^0 ) ) 0 ) ( = ( + undef689 ( * ( - 1 ) undef874 ) ) 0 ) ( <= ( + ( + ( + Nl10CT1 ( * Nl10fcode5^01 0 ) ) ( * Nl10hshift11^01 0 ) ) ( * ( + 0 Nl10__const_65536^01 ) __const_65536^0 ) ( * ( + 0 ( * Nl10fcode5^01 1 ) ) hsize^0 ) ) 0 ) ( <= ( + ( + ( + Nl10CT2 ( * Nl10fcode5^02 0 ) ) ( * Nl10hshift11^02 0 ) ) ( * ( + 0 Nl10__const_65536^02 ) __const_65536^0 ) ( * ( + 0 ( * Nl10fcode5^02 1 ) ) hsize^0 ) ) 0 ) ( <= 0 0 ) ) ( and ( <= count^0 0 ) ( <= ( + count^0 ( * ( - 1 ) i3^0 ) ) 0 ) ( not ( <= ( + __const_65536^0 ( * ( - 1 ) hsize^0 ) ) 0 ) ) ( <= ( + 1 block_compress^0 ) 0 ) ( = ( + __const_429496^0 ( * ( - 1 ) undef689 ) ) 0 ) ( <= ( + ( + ( + Nl10CT1 ( * Nl10fcode5^01 0 ) ) ( * Nl10hshift11^01 0 ) ) ( * ( + 0 Nl10__const_65536^01 ) __const_65536^0 ) ( * ( + 0 ( * Nl10fcode5^01 1 ) ) hsize^0 ) ) 0 ) ( <= ( + ( + ( + Nl10CT2 ( * Nl10fcode5^02 0 ) ) ( * Nl10hshift11^02 0 ) ) ( * ( + 0 Nl10__const_65536^02 ) __const_65536^0 ) ( * ( + 0 ( * Nl10fcode5^02 1 ) ) hsize^0 ) ) 0 ) ( <= 0 0 ) ) ( and ( <= __const_53^0 0 ) ( <= ( + count^0 ( * ( - 1 ) i3^0 ) ) 0 ) ( not ( <= ( + __const_65536^0 ( * ( - 1 ) hsize^0 ) ) 0 ) ) ( <= ( + 1 block_compress^0 ) 0 ) ( <= ( + 1 ( * ( - 1 ) count^0 ) ) 0 ) ( = ( + __const_429496^0 ( * ( - 1 ) undef689 ) ) 0 ) ( <= ( + ( + ( + Nl10CT1 ( * Nl10fcode5^01 0 ) ) ( * Nl10hshift11^01 0 ) ) ( * ( + 0 Nl10__const_65536^01 ) __const_65536^0 ) ( * ( + 0 ( * Nl10fcode5^01 1 ) ) hsize^0 ) ) 0 ) ( <= ( + ( + ( + Nl10CT2 ( * Nl10fcode5^02 0 ) ) ( * Nl10hshift11^02 0 ) ) ( * ( + 0 Nl10__const_65536^02 ) __const_65536^0 ) ( * ( + 0 ( * Nl10fcode5^02 1 ) ) hsize^0 ) ) 0 ) ( <= 0 0 ) ) ( and ( <= ( + count^0 ( * ( - 1 ) i3^0 ) ) 0 ) ( <= ( + 1 ( * ( - 1 ) __const_53^0 ) ) 0 ) ( not ( <= ( + __const_65536^0 ( * ( - 1 ) hsize^0 ) ) 0 ) ) ( <= ( + 1 block_compress^0 ) 0 ) ( <= ( + 1 ( * ( - 1 ) count^0 ) ) 0 ) ( = ( + undef689 ( * ( - 1 ) undef874 ) ) 0 ) ( <= ( + ( + ( + Nl10CT1 ( * Nl10fcode5^01 0 ) ) ( * Nl10hshift11^01 0 ) ) ( * ( + 0 Nl10__const_65536^01 ) __const_65536^0 ) ( * ( + 0 ( * Nl10fcode5^01 1 ) ) hsize^0 ) ) 0 ) ( <= ( + ( + ( + Nl10CT2 ( * Nl10fcode5^02 0 ) ) ( * Nl10hshift11^02 0 ) ) ( * ( + 0 Nl10__const_65536^02 ) __const_65536^0 ) ( * ( + 0 ( * Nl10fcode5^02 1 ) ) hsize^0 ) ) 0 ) ( <= 0 0 ) ) ))
(assert ( or ( and ( and ( >= lam24n0 0 ) ( >= lam24n1 0 ) ( >= lam24n2 0 ) ( >= lam24n3 0 ) ( >= lam24n4 0 ) ( >= lam24n5 0 ) ( > ( + ( * 1 lam24n0 ) ( * 50001 lam24n1 ) ( * 50001 lam24n2 ) ( * 50001 lam24n3 ) ( * Nl10CT1 lam24n4 ) ( * Nl10CT2 lam24n5 ) ( - 1 ( - ( + ( + RFN1_CT ( * RFN1_fcode5^0 0 ) ) ( * RFN1_hshift11^0 1 ) ) RFN1_CT ) ) ) 0 ) ( = ( + ( * ( - 1 ) lam24n0 ) ( * 1 lam24n1 ) ( * ( - 1 ) lam24n2 ) ( * Nl10__const_65536^01 lam24n4 ) ( * Nl10__const_65536^02 lam24n5 ) ( - ( - ( + 0 RFN1___const_65536^0 ) RFN1___const_65536^0 ) ) ) 0 ) ( = ( + ( * 1 lam24n0 ) ( * Nl10fcode5^01 lam24n4 ) ( * Nl10fcode5^02 lam24n5 ) ( - ( - RFN1_fcode5^0 ) ) ) 0 ) ( = ( + ( * ( - 1 ) lam24n1 ) ( * ( - 1 ) lam24n2 ) ( * ( - 1 ) lam24n3 ) ( * Nl10hshift11^01 lam24n4 ) ( * Nl10hshift11^02 lam24n5 ) ( - ( - ( + 0 ( * RFN1_hshift11^0 1 ) ) RFN1_hshift11^0 ) ) ) 0 ) ( = ( - ( + 0 ( * RFN1_fcode5^0 1 ) ) ) 0 ) ) ( and ( and ( >= lam22n0 0 ) ( >= lam22n1 0 ) ( >= lam22n2 0 ) ( >= lam22n3 0 ) ( >= lam22n4 0 ) ( >= lam22n5 0 ) ( > ( + ( * 1 lam22n0 ) ( * 50001 lam22n1 ) ( * 50001 lam22n2 ) ( * 50001 lam22n3 ) ( * Nl10CT1 lam22n4 ) ( * Nl10CT2 lam22n5 ) ( - 1 ( - RFN1_CT ) ) ) 0 ) ( = ( + ( * ( - 1 ) lam22n0 ) ( * 1 lam22n1 ) ( * ( - 1 ) lam22n2 ) ( * Nl10__const_65536^01 lam22n4 ) ( * Nl10__const_65536^02 lam22n5 ) ( - ( - RFN1___const_65536^0 ) ) ) 0 ) ( = ( + ( * 1 lam22n0 ) ( * Nl10fcode5^01 lam22n4 ) ( * Nl10fcode5^02 lam22n5 ) ( - ( - RFN1_fcode5^0 ) ) ) 0 ) ( = ( + ( * ( - 1 ) lam22n1 ) ( * ( - 1 ) lam22n2 ) ( * ( - 1 ) lam22n3 ) ( * Nl10hshift11^01 lam22n4 ) ( * Nl10hshift11^02 lam22n5 ) ( - ( - RFN1_hshift11^0 ) ) ) 0 ) ) ( and ( >= lam23n0 0 ) ( >= lam23n1 0 ) ( >= lam23n2 0 ) ( >= lam23n3 0 ) ( >= lam23n4 0 ) ( >= lam23n5 0 ) ( > ( + ( * 1 lam23n0 ) ( * 50001 lam23n1 ) ( * 50001 lam23n2 ) ( * 50001 lam23n3 ) ( * Nl10CT1 lam23n4 ) ( * Nl10CT2 lam23n5 ) ( - 1 ( + ( - ( + ( + RFN1_CT ( * RFN1_fcode5^0 0 ) ) ( * RFN1_hshift11^0 1 ) ) RFN1_CT ) 1 ) ) ) 0 ) ( = ( + ( * ( - 1 ) lam23n0 ) ( * 1 lam23n1 ) ( * ( - 1 ) lam23n2 ) ( * Nl10__const_65536^01 lam23n4 ) ( * Nl10__const_65536^02 lam23n5 ) ( - ( - ( + 0 RFN1___const_65536^0 ) RFN1___const_65536^0 ) ) ) 0 ) ( = ( + ( * 1 lam23n0 ) ( * Nl10fcode5^01 lam23n4 ) ( * Nl10fcode5^02 lam23n5 ) ( - ( - RFN1_fcode5^0 ) ) ) 0 ) ( = ( + ( * ( - 1 ) lam23n1 ) ( * ( - 1 ) lam23n2 ) ( * ( - 1 ) lam23n3 ) ( * Nl10hshift11^01 lam23n4 ) ( * Nl10hshift11^02 lam23n5 ) ( - ( - ( + 0 ( * RFN1_hshift11^0 1 ) ) RFN1_hshift11^0 ) ) ) 0 ) ( = ( - ( + 0 ( * RFN1_fcode5^0 1 ) ) ) 0 ) ) ) ) ( and ( >= lam21n0 0 ) ( >= lam21n1 0 ) ( >= lam21n2 0 ) ( >= lam21n3 0 ) ( >= lam21n4 0 ) ( >= lam21n5 0 ) ( > ( + ( * 1 lam21n0 ) ( * 50001 lam21n1 ) ( * 50001 lam21n2 ) ( * 50001 lam21n3 ) ( * Nl10CT1 lam21n4 ) ( * Nl10CT2 lam21n5 ) ( - 1 ) ) 0 ) ( = ( + ( * ( - 1 ) lam21n0 ) ( * 1 lam21n1 ) ( * ( - 1 ) lam21n2 ) ( * Nl10__const_65536^01 lam21n4 ) ( * Nl10__const_65536^02 lam21n5 ) ) 0 ) ( = ( + ( * 1 lam21n0 ) ( * Nl10fcode5^01 lam21n4 ) ( * Nl10fcode5^02 lam21n5 ) ) 0 ) ( = ( + ( * ( - 1 ) lam21n1 ) ( * ( - 1 ) lam21n2 ) ( * ( - 1 ) lam21n3 ) ( * Nl10hshift11^01 lam21n4 ) ( * Nl10hshift11^02 lam21n5 ) ) 0 ) ) ))
(check-sat)
(exit)
